
 102   30
  10   10   10   10   10   10   10   10   10   10   10   10   10   10   10   10   10   10   10   10   10   10   10   10   10   10   10   10   10   10

   0   0   0   0   0   0   0   0   0   0   0   0   0   0   0   0   0   0   0   0   0   0   0   0   0   0   0   0   0   0   0  25 2 3 4 5 6 7 8 9 10 11 12 13 14 15 16 17 19 21 22 23 25 28 29 31 58 
   3   0   0   0   0   0   0   2   0   0   0   0   3   1   1   0   0   0   0   0   0   0   2   0   0   0   0   0   0   0   1  22 101 96 92 72 71 68 64 56 54 53 52 50 49 48 47 46 43 40 38 37 36 35 
   8   1   0   0   0   0   0   0   0   0   0   0   0   0   0   0   2   0   1   0   0   0   0   0   0   0   0   0   0   0   0  15 99 72 53 50 47 46 43 41 40 38 36 33 30 27 24 
   3   0   0   0   0   0   0   0   1   1   0   0   0   0   0   0   0   0   0   0   1   0   4   0   0   0   0   0   0   1   0  12 99 63 57 54 52 49 48 45 42 36 34 20 
   3   9   1   0   0   0   0   0   6   0   1   0   0   0   0   0   0   0   0   0   0   0   5   0   0   1   1   0   1   0   0  20 100 99 97 96 71 65 63 60 56 54 53 52 50 48 47 46 43 41 36 32 
   1   0   0   0   0   0   0   0   0   0   0   2   0   5   0   0   0   0   0   1   8   0   5   2   0   0   0   0   0   0   0  13 101 100 72 71 67 62 53 51 50 48 40 38 26 
   9   0   0   0   0   0   1   0   0   0   0   0   0   0   0   0   0   0   0   0   0   0   0   0   0   0   5   0   0   0   0  24 100 99 97 96 95 92 90 89 88 71 68 67 64 63 61 60 59 56 54 52 50 44 36 35 
   4  10   0   0   0   0   0   0   5   0   0   0   0   0   0   0   0   0   0   0   0   0   6   0   0   0   0   0   0   0   0  10 100 72 69 62 60 52 50 41 32 18 
   7   0   0   0   0   0   0   0   0   0   0   0   0   0   0   0   0   0   8   0   0   3   7   8   0   0   7   3   0   0   7  20 97 96 93 90 87 72 69 64 63 62 60 56 55 54 53 51 49 46 45 32 
   5   8   0   0   2   6   0   0   9   0   0   6   0   0   0   0   0   0   0   0   6   0   0   0   0   0   0   0   0   0   0  25 100 99 98 97 96 95 93 92 91 90 89 86 85 72 71 69 64 63 62 56 54 53 50 46 45 
  10   0   0   0   7   0   0   0   0   7   0   0   0   0   0   0   0   0   0   0   0   0   0   9   0   0   0   0   0   0   7  18 98 97 96 92 88 72 71 69 68 59 56 52 50 47 46 43 38 36 
   6   0   0   1  10   0   0   3   6   9   0   0   0   0   0   0   0   1   0   6   0   0   0   0   0   0   0   0   0   0   0  18 97 96 94 93 86 72 71 68 62 60 53 51 50 48 46 43 40 32 
   6   5   0   0   0   0   0   0   0   0   0   0   0   0   0   0   0   3   0   0   0   0   0   0   0   0   0   0   0   4   0  14 100 97 96 94 72 66 64 60 53 52 45 43 34 32 
   7   7   0   0   3   0   0   0   0   0   0   0   0   0   0   0   0   0   0   0   0   0   0   0   0   0   0   0   0   0   0  16 98 97 96 95 92 90 89 72 69 59 53 52 50 46 45 36 
   1   0   0   0   0   6   0   0   0   0   0   0   0   0   0   0   0  10   8   5   0   0   0   0   0   0   0   7   0   0   0  15 100 99 97 94 92 68 64 57 56 52 50 49 47 43 35 
   7   0   7   0   0   0   0   0   0   0   0   9   0   0   0   0   0   0   0   0   0   0   0   0   0   3   7   0   0   0   0  18 98 97 94 93 92 89 87 80 69 62 59 56 55 53 47 46 45 39 
   5   8   0   0   0   0   5   5   0   0   7   0   0   7   0   0   4   0   0   0   0   0   0   0   0   0   6   0   0   0   0  21 100 98 97 96 93 92 91 90 87 82 69 68 67 66 60 59 57 55 51 48 47 
   3   0   0   0   0   0   7   0   0   6   6   0   0   0   0   0   0   5   0   0   3   0   0   0   0   0   0   0   0   0   0  16 99 98 97 96 93 91 87 85 70 68 65 63 59 54 47 43 
   3   0   0   0   0   0   0   0   0   0   0   0   0   0   0   1   0   0   0   0   0   0   0   0   0   0   0   0   0   6   0  18 99 96 95 90 86 84 80 71 70 69 68 65 62 61 60 51 50 46 
   9   0   0   0   0   0   0   0   0   0   0   0   0   0   0   0   0   0   0   0   0   5   0   0   0   0   0   0   0   0   0  13 100 96 94 90 87 86 83 81 72 69 56 53 32 
   4   0   0   0   0   0   0   0   0   0   0   0   9   0   0   0   0   0   0   0   0   0   3   0   0   0   3   0   0   0   0  19 99 95 92 91 89 87 86 69 68 67 66 63 62 61 59 55 54 52 51 
   5   0   0   0   0   0   0   0   0   0   0   0   0   0   0   6   0   0   0   8   0   0   8   0   0   0   0   0   0   0   4  16 98 97 96 94 91 90 87 83 68 64 63 60 55 53 51 49 
  10   0   0   0   0   0   0   0   0   0   8   0   0   0  10   7   0   0   0   0   0   9   0   0   0   0   0   0   0   0   0  17 96 95 93 92 90 89 88 86 83 80 68 67 66 63 61 51 50 
   1   6   0   0   0   0   0   0   0   0   0   0   6   0   8   0   0   0   0   0   0   0   0   0   0   0   0   0   0   0   0  15 98 94 93 87 86 83 82 71 70 67 61 60 55 51 48 
   8   0   5   0   0   0   0   0   0   0   0   0   0   0   0   8   0   7   0   5   0   0   0   0   1   0   0   0   0   0   0  15 97 96 92 90 88 86 80 69 68 66 62 61 60 51 50 
   3   0   0   0   8   0   0   0   0   0   0   0   0   0   0   0   0   9   0   0   0   0   0   0   0   0   0   0   0   0   0  13 99 97 96 95 92 91 86 82 66 61 60 54 45 
  10   0   0   0   0   0   0   0   0   0   0   0   5   0   0   8   0   0   5   0   0   0   0   0   0   0   0   0   0   0   0  19 100 97 96 94 93 91 90 89 88 85 83 82 79 78 68 67 66 64 61 
   1   0   0   0   0   0   0   0   0   6   0   0   0   0   0   0   0   0   0   0   0   0   0   0   0   0   0   0   0   9   0  16 92 89 87 86 84 83 82 80 78 71 68 67 65 61 55 51 
   5   0   0   0   0   0   0   0   6   0   0   0   0   0   0   0   0   0   0   0   0   2   0   0   0   0   0   7   0   0   0  10 99 93 86 78 70 69 68 66 61 43 
   8   0   0   6   5   5   5   0   0   0   0   0   0   0   0   0   0   0   0   0   0   0   3   0   0   0   0   0   0   0   0  16 98 95 94 92 89 87 85 83 82 79 78 74 67 64 61 52 
   9   0   0   0   0   0   8   0   0   0   0   2   0   0   0   0   0   0   0   5   0   0   0   0   0   0   0   0   0   0   0  13 99 94 92 91 89 87 86 85 81 79 64 61 46 
   8   0   0   0   8   0   0   0   0   0   0   0   0   0   0   0   0   0   0   9   0   0   0   0   0   0   0   0   0   0   0  15 98 95 92 91 89 85 84 82 80 79 76 70 67 61 59 
   4   0   0   0   0   0   0   0   0   0   0   0   0   0   0   5   0   7   0   0   0   0   0   0   0   0   0   0   0   0   0  12 98 95 89 88 87 86 84 80 78 62 55 51 
   3   0   0   0   0   0   0   0   0   0   5   4   6   0   0   0   0   0   0   0   0   0   0   0   0   0   0   0   5   0   0  11 95 91 88 86 85 83 81 80 76 68 50 
   5   0   0   0   0   4   0   0   6   0   0   0   0   0   0   0   0   0   0   0   0   0   0   0   0   0   0   0   0   0   0  11 98 91 86 85 84 82 78 69 65 62 55 
   7   0   0   8   0   0   0   0   0   0   0   0  10   0   0   0   0   8   0   6   0   0   0   0   9   0   0   0   0   0   0  10 94 93 91 87 86 84 79 66 62 51 
  10   0   0   0   0   0   0   0   0   0   0   0   8   0   0   0   0   7   0   0   0   0   0   0   0   0   0   0   0   0   4  14 100 99 97 86 85 84 83 82 81 78 76 74 73 61 
   4   0   0   0   0   0   0   0   0   0   0   0   0   0   0   8   0   0   0   0   0   0   0   0   0   0   0   0   0   0   0  12 93 91 90 87 84 81 80 79 76 73 63 61 
  10   0   0   0   0   0   8   0   0   0   0   0   0   0   0   0   0   0   0   0   0   0   0   0   0   0   0   0   0   0   0  11 96 90 88 85 84 82 79 78 75 66 60 
   5   0   0   0   0   0   0   0   0   0   0   0   0   0   0   0   0   0   0   0   0   0   0   0   0   0   0   0   0   0   0   9 84 83 82 80 79 69 66 61 59 
   5   5   0   0   0   0   0   0   0   0  10   0   0   0   0   0   0   0   0   0   0   6   0   0   8   0   0   0   4   0   9  10 88 87 86 85 82 80 78 77 76 55 
   6   0   0   0   0   5   0   0   0   0   0   0   0   6   0   0  10   0   0   4   0   0   0   0   0   0   0   0   0   6   9   9 97 92 87 86 84 82 71 66 60 
   3   0   0   0   0   0   0   0   0   7   0   0   7   0   0   0   0   0   0   9   3   0   0   0   5   0   7   0   0   0   0  11 95 90 89 84 83 81 80 79 75 74 67 
   9   0   8   0   0   0   0   0   0   0   0   0   0   0   0   0   0   0   0   0   0   0   0   0   0   0   0   0   0   0   0   7 86 85 83 81 78 76 55 
   1   0   9   7   0   0   0   0   0   0   0   0   0   0   6   6   0   5   0   0   0   0   0   0   0   0   6   0   0   0   7   8 88 83 79 78 76 75 73 68 
   4   0   0   0   0   0   0   0   0   0   0   0   0   0   5   0   0   0   0   0   0   5   0   0   0   0   0   0   0   0   0   6 82 78 75 74 67 66 
   9   9   0   0   0   0   0   0   0   0   0   0   0   0   0   6   0   0   0   0   0   0   0   0   0   0   0   0   0   0   0   6 86 83 81 76 73 61 
   3   0   0   0   0   0   0   0   0   8   0   0   0   0   6   0   0   0   0   0   0   0   8   0   8   0   9   5   0   0   0   7 89 88 84 81 80 78 73 
   1   0   7   0   0   0   0   8   0   0   0   0   0   0   0   0   0   0   0   0   0   0   0   0   0   0   0   0   5   0   0   6 86 82 80 75 74 67 
   7   0   0   0   5   0   0   5   0   0   0   0   0   0   0   0   0   0   0   0   9   0   0   0   0   0   0   0   0   0   0   3 87 78 55 
   3   6   0   0   7   0   8   0   0   0   4   0  10   0   0   0   0   0   0   0   8   0   0   0   0   9   0   0   9   0   7   6 85 81 77 76 75 74 
   2   0   0   0   7   0   0   0   0   0   0   0   0   0   0   0   0   0   0   0   0   0   0   0   0   0   0   6   0   7   0   6 93 81 80 77 76 73 
   8   0   0   4   0   0   0   0   0   0   9   0   0   0   0   0   0   0   0   6   0   0   0   0   0   0   0  10   0   0   0   3 78 70 61 
  10   0   0   0   0   0   0   0   0   0   0   0   8   0   0   0   0   0   3   0   0   0   0   0   0   0   0   0   0   0   0   5 94 81 80 75 74 
   5   0   0   0   0   0   0  10   0   0   0   0   0   0   0   0   3   0   0   0   0   0   0   0   0   0   6   0   0   0   0   4 79 75 74 73 
  10   0   0   0   0   0   7   0   0   0   0   0   4   0   0   0   0   0   5   0   5   0   0   0   0   0   0   0   0   0   0   4 84 77 75 73 
  10   0   0   0   0   0   0   0   0   0   0   0   2   0   0   0   0   0   0   0   7  10   0   0   0   7   0   0   0   0   0   4 85 77 76 74 
   8   0   0   0   0   0   0   0   0   0   0   0   0   0   0   0   0   0   0   0   0   0   0   0   0   6   5   0   0   0   9   4 89 82 74 73 
   8   0   0   0   0   0   0   0   5   0   3   0   0   0   7   0   0   0   0   0   0   0   0   0   0   0   0   0   0   8   0   3 78 75 74 
   6   0   0   0   0   0   0  10   0   0   0   4   0   6   0   0   0   0   0   0   0   0   0   0   0   0   0   0   0   0   0   3 77 74 73 
   7   0   0   0   0   6   0   0   0   0   0   0   0   5   0   0   0   0   5   0   0   0   0   0   0   0   8   0   6   0   0   2 77 75 
   1   0   8   0   0   0   0   0   8   0   0   0   0   0   0   0   0   6   0   0   0   0   0   0   0   0   0   0   0   7   0   2 83 76 
   2   0   0   0   0   0   5   0   0   0   5   0   0   0   0  10  10   0  10   5   7   0   9   0   0   0   0   0   0   0   0   2 82 74 
   7   0   0   0   0   0   0   0   0   0   0   0   0   7   0   0   0   0   0   0   0   0   0   0   0   9   0   0   5   0   5   2 84 80 
   6   0   5   0   0   0   0   8   0   0   0   0   0   0   0   0   0   0   0   0   0   0   0   0   7   0   0   0   0   0   0   1 66 
   7   0   0   7   0   0   0   0   0   0   0   0   0   0   0   0   4   0   0   0   0   0   0   0   0   9   0   0   0   0   0   1 76 
   4   0   0   0   8   0   0   0   0   0   0   6   5   0   0   0   0   0   0   0   0   0   0   0   0   0   0   7   0   9   0   1 73 
   5   0   0   0   0   0   7   0   0   0   0   0   0   0   7   0   0   0   0   0   0   0   5   0   0   0   6   0   0   0   0   1 77 
   9   0   5   0   0   0   0   0   6   0   0   0   0   0   5   0   6   0   0   0   0   0   0   0   0   0   2   0   0   0   0   1 73 
   3   0   5   0   0   0   0   0   0   0   0   0   0   0   1   0   0   0   0   0   0   0   0   0   0   0   0   0   0   0   0   1 88 
   1   0   0   8   0   5   0   0   0   0   0   0   0   0   0   0   0   0   0   0   5   0   0  10   0   3   0   0   0   0   0   1 77 
   5   3   0   0   0   0   0   0   0   0   0   0   0   0   0   0   0   0   0   0   0   0   0   0   0   0   0   0   0   0   3   1 74 
   8   7   0   0   0   7   0   0   0   0   0   0   0   0   0   0   3   0   0   0   0   0   0   0   4   0   0   5   0   3   0   1 102
   8   0   0   0   0   0   0   4   5   0   6   0   0   0   0   0   0   0   0   0   0   0   0   0   0   0   7   0   0   0   0   1 102
   7   0   0   0   0   0   0   0   0   0   0  10   0   7   4   0   0   0   0   0   0   0   0   4   0   0   0   0   0   0   0   1 102
   7   0   0   4   0   0   0   0   0   0   0   0   0   0   0   0   0   0  10   0   0   0   0   0   0   0   0   0   0   0   0   1 102
   9   5   0   0   0   5   0   5   0   0   5   0   0   0   0   5   0   0   0   0   0   0   0   0   5   0   0   4   0   6   0   1 102
   5   0   0   0   0   0   0   0   0   0   6   0   0   0   9   7   0   0   0   0   0   0   0   0   0   0   0   6   0   0   0   1 102
   1   0   6   0   0  10   0   0   0   0   0   0   0   0   0   7  10   0   0   0   0   0   0   0   0   0   0   0   7   0   0   1 102
   1   0   0  10   0   0   0   0   0   0   0   0   0   0   0   0   6   0   0   0   8   0   0   0   0   0   0   0   0   0   6   1 102
   2   0   0   0   0   0   0   0   0   0   0   9   0   0   0   0   0   0   0   0   0   0   8   0   0   0   0   0   0   0   0   1 102
   1   0   0   0   0   0   0   0   0   0   0   0   0   0   0   0   0   0   0   0   0   0   8   0   0   0   0   0   0   0   0   1 102
  10   3   0   0   0   0   0   0   0   0   0   0   0   0   0   0   0   0   0   0   0   0   0   0   0   0   0   0   0   0   0   1 102
   9   0   0   0   0   0   0   0   0   0   0   0   0   0   9   0   8   4   0   0   0   0   0   0   0   0   0   0   0   0   0   1 102
   1   6   0   0   3   7   0   6   0   0   0   0   0   0   0   0   0   0   0   0   0   0   0   0   5   6   0   0   0   0   0   1 102
   2   7   0   0   0   0   0   0   0   0   0   0   5   0   4   0   0   0   0   0   0   0  10   0   0   0   0   0   0   0   0   1 102
   2   5   0   0   0   0   0   0   0   0   0   0   0   0   0   0   0   0   0   0   0   0   0   0   0   0   0   0   0   0   0   1 102
  10   0   0   0   0   0   0   0   0   0   0   0   0   0   0   4   0   0   0   0   0   0   0   0   0   4   0   0  10   4   0   1 102
   1   0   0   0   0   0   0   0   0   0   9   0   0   0   0   0   0   0   0   0   9   0   0   0   0   0   0   0   0   0   0   1 102
  10   0   0   5   0   0   0   0   0   6   0   0   0   0   7   0   0   0   0   0   0   0   5   0   0   0   0   9   8   0   0   1 102
   8   0   0   0   0   0   0   0   6   0   6   0   0   0   0   5   0   0   6   0   0   0   6   0   0   0   0   0   0   0   0   1 102
   4   0   0   0   0   0   0   0   0   0   0   8   0   0   6   0   0  10   4   9   0   0   0   0   0   0   9   0   0   7   6   1 102
  10   0   0   0   0   0   3   0   0   0   0   0   2   0   0   0   0   0   0   0   0   0   0   0   0   0   0   0   0   6   0   1 102
   5   7   4   0   0   0  10   0   0   0   0   0   0   0   7   0   0   0   0   0   0   0   0   0   3   9  10   0   0   0   0   1 102
   6   0   0   0   0   0   0   0   0   0   0   0   0   0   0   0   4   0   0   0   0   0   0   0   0   0   0   0   0   0   0   1 102
   8   0   0   0   0   0   0   0   0   0   0   0   0   7   0   0   0   6   0   0   5   0   0   0   0   0   0   5   0   0   0   1 102
   7   0   0   0   0   0   0   0   0   0   0   0   0   0   0   3   0   0   0   0   0   8   0   3   8   0   4   6   0   0   0   1 102
   5   0   0   0   0   0   0   0   9   0   6   0   0   0   0   0   0   0   0   0   0   0   0   0   0   0   0   0   0   7   0   1 102
   5   0   0   0   5   0   4   0   0   4   0   0   0   9   0   0   8   0   0   0   0   0   0   0   0   0   0   0   0   0   0   1 102
  10   5   0   0   0   0   0   0   0   0   0   0   0   0   0   0   0   2   0   0   0   0   0   0   0   0   0   0   0   0   0   1 102
   1   4   8   0   0   0   0   0   0   0   0   0   0   0   0   0   0   0   7   0   0   0   0   0   9   0   0   4   0   0   0   1 102
   0   0   0   0   0   0   0   0   0   0   0   0   0   0   0   0   0   0   0   0   0   0   0   0   0   0   0   0   0   0   0   0 
